20	5	2	0
0	1	20	8	7	21	4	15	13	10	19	2	9	20	11	1	16	12	5	18	14	3	17	[0 0 0]	[0 0 0]	[0]	[0 0 0]	[0 0 0]	[0 0 0]	[0 0 0]	[0 0 0]	[0 0 0]	[0 0 0]	[0 0 0]	[0 0 0]	[0 0 0]	[0 0 0]	[0 0 0]	[0 0 0]	[0 0 0]	[0 0 0]	[0 0 0]	[0 0 0]
1	3	2	9	21	[3 5 8 4 -2 11 16 0 16]	[3 6 8]
2	3	2	6	21	[6 8 5 9 20 12 4 2 5]	[3 8 2]
3	3	2	21	17	[10 2 2]	[9 13 24 0 -1 2 5 2 3]
4	3	2	21	13	[6 6 5]	[0 15 14 10 6 10 0 3 3]
5	3	2	21	19	[2 6 3]	[0 0 3 15 16 9 0 2 0]
6	3	2	8	21	[6 10 -3 21 0 8 2 0 -4]	[4 10 7]
7	3	2	21	12	[10 7 7]	[9 8 0 19 9 6 -4 12 1]
8	3	2	5	21	[5 6 0 10 9 6 9 11 17]	[2 10 7]
9	3	2	21	4	[6 8 10]	[9 2 13 0 5 5 28 21 28]
10	3	4	15	16	13	21	[-172 -102 -189 -235 -130 -195 -134 -211 -184]	[-207 -186 -67 -231 -136 -74 -154 -197 -125]	[-7 26 22 -3 1 9 0 0 2]	[10 4 1]
11	3	2	21	14	[6 9 7]	[-2 1 -4 -3 0 14 10 16 7]
12	3	2	11	21	[-1 3 -2 3 1 -3 2 -2 11]	[5 7 6]
13	3	5	20	3	21	1	9	[19 12 10 6 0 -3 7 -7 2]	[-76 -47 -115 -86 -196 -84 -50 -136 -168]	[7 4 8]	[-160 -149 -207 -216 -89 -103 -229 -202 -105]	[-78 -175 -85 -95 -218 -166 -130 -130 -230]
14	3	3	21	17	15	[2 2 6]	[-169 -163 -222 -51 -94 -150 -210 -144 -125]	[5 6 4 5 6 0 6 16 -2]
15	3	2	16	21	[15 11 7 25 27 -9 0 1 1]	[10 10 1]
16	3	4	4	10	14	21	[-1 0 2 0 4 4 15 -3 5]	[-1 5 0 6 5 2 13 -2 7]	[-113 -98 -64 -163 -133 -223 -105 -95 -238]	[2 2 5]
17	3	2	21	18	[5 8 4]	[14 -4 11 12 -5 11 -2 -2 12]
18	3	3	21	5	7	[1 8 10]	[3 3 2 2 22 -7 1 16 18]	[3 2 0 -7 15 24 0 27 17]
19	3	1	21	[10 3 1]
20	3	3	3	1	21	[-124 -102 -67 -161 -146 -199 -149 -179 -36]	[-239 -157 -155 -89 -99 -201 -150 -95 -229]	[10 6 6]
21	1	0
0	1	0	0	0	0	0	0	0	0
1	1	3	1	3	1	1	5	5	3
	2	6	1	3	1	1	5	5	3
	3	8	1	3	1	1	5	5	3
2	1	3	2	1	1	4	1	3	5
	2	8	2	1	1	4	1	3	5
	3	2	2	1	1	4	1	3	5
3	1	10	5	2	4	3	5	1	3
	2	2	5	2	4	3	5	1	3
	3	2	5	2	4	3	5	1	3
4	1	6	3	5	4	2	2	1	3
	2	6	3	5	4	2	2	1	3
	3	5	3	5	4	2	2	1	3
5	1	2	5	5	1	4	2	3	3
	2	6	5	5	1	4	2	3	3
	3	3	5	5	1	4	2	3	3
6	1	4	2	5	5	4	5	2	1
	2	10	2	5	5	4	5	2	1
	3	7	2	5	5	4	5	2	1
7	1	10	3	2	2	1	5	1	3
	2	7	3	2	2	1	5	1	3
	3	7	3	2	2	1	5	1	3
8	1	2	1	3	3	1	5	3	2
	2	10	1	3	3	1	5	3	2
	3	7	1	3	3	1	5	3	2
9	1	6	2	4	3	5	1	3	4
	2	8	2	4	3	5	1	3	4
	3	10	2	4	3	5	1	3	4
10	1	10	2	3	1	4	2	5	4
	2	4	2	3	1	4	2	5	4
	3	1	2	3	1	4	2	5	4
11	1	6	4	2	4	2	4	1	2
	2	9	4	2	4	2	4	1	2
	3	7	4	2	4	2	4	1	2
12	1	5	2	5	5	1	2	4	1
	2	7	2	5	5	1	2	4	1
	3	6	2	5	5	1	2	4	1
13	1	7	5	5	1	2	4	3	1
	2	4	5	5	1	2	4	3	1
	3	8	5	5	1	2	4	3	1
14	1	2	1	1	2	2	4	3	5
	2	2	1	1	2	2	4	3	5
	3	6	1	1	2	2	4	3	5
15	1	10	2	1	5	1	1	5	5
	2	10	2	1	5	1	1	5	5
	3	1	2	1	5	1	1	5	5
16	1	2	1	1	4	1	1	1	3
	2	2	1	1	4	1	1	1	3
	3	5	1	1	4	1	1	1	3
17	1	5	4	1	3	2	3	4	5
	2	8	4	1	3	2	3	4	5
	3	4	4	1	3	2	3	4	5
18	1	1	1	2	3	1	2	4	2
	2	8	1	2	3	1	2	4	2
	3	10	1	2	3	1	2	4	2
19	1	10	3	2	3	2	4	5	1
	2	3	3	2	3	2	4	5	1
	3	1	3	2	3	2	4	5	1
20	1	10	1	4	5	4	5	4	3
	2	6	1	4	5	4	5	4	3
	3	6	1	4	5	4	5	4	3
21	1	0	0	0	0	0	0	0	0
5	5	5	5	5	61	120
